Welcome to the CBC MILP Solver 
Version: Trunk
Build Date: Apr 16 2020 

Starting solution of the Linear programming relaxation problem using Primal Simplex

Using Python-MIP package version 1.8.1
Machines:  3 Jobs:  3
Order: 
Job  0 : machine 1 ( 7 ) machine 2 ( 7 ) machine 0 ( 1 ) 
Job  1 : machine 1 ( 4 ) machine 0 ( 3 ) machine 2 ( 7 ) 
Job  2 : machine 1 ( 7 ) machine 2 ( 6 ) machine 0 ( 2 ) 
K:  33
Job  0 , e: machine  0 ( 14 ) machine  1 ( 0 ) machine  2 ( 7 ) 
Job  1 , e: machine  0 ( 4 ) machine  1 ( 0 ) machine  2 ( 7 ) 
Job  2 , e: machine  0 ( 13 ) machine  1 ( 0 ) machine  2 ( 7 ) 
Job  0 , f: machine  0 ( 0 ) machine  1 ( 8 ) machine  2 ( 1 ) 
Job  1 , f: machine  0 ( 7 ) machine  1 ( 10 ) machine  2 ( 0 ) 
Job  2 , f: machine  0 ( 0 ) machine  1 ( 8 ) machine  2 ( 2 ) 
EST and LST:
Job: 0 Machine: 0 EST: 14 LST: 32
Job: 0 Machine: 1 EST: 0 LST: 18
Job: 0 Machine: 2 EST: 7 LST: 25
Job: 1 Machine: 0 EST: 4 LST: 23
Job: 1 Machine: 1 EST: 0 LST: 19
Job: 1 Machine: 2 EST: 7 LST: 26
Job: 2 Machine: 0 EST: 13 LST: 31
Job: 2 Machine: 1 EST: 0 LST: 18
Job: 2 Machine: 2 EST: 7 LST: 25
Order:
Job: 0 Machine: 0 = 2 
Job: 0 Machine: 1 = 0 
Job: 0 Machine: 2 = 1 
Job: 1 Machine: 0 = 1 
Job: 1 Machine: 1 = 0 
Job: 1 Machine: 2 = 2 
Job: 2 Machine: 0 = 2 
Job: 2 Machine: 1 = 0 
Job: 2 Machine: 2 = 1 
Distances:
Job 0, Machine 1 -> Machine 2: distance 7
Job 0, Machine 1 -> Machine 0: distance 14
Job 0, Machine 2 -> Machine 0: distance 7
Job 1, Machine 1 -> Machine 0: distance 4
Job 1, Machine 1 -> Machine 2: distance 7
Job 1, Machine 0 -> Machine 2: distance 3
Job 2, Machine 1 -> Machine 2: distance 7
Job 2, Machine 1 -> Machine 0: distance 13
Job 2, Machine 2 -> Machine 0: distance 6
McCormic linearization
14.0 13.0 2
0.0 0.0 4
0.0 0.0 7
0.0 0.0 7
7.0 7.0 7
7.0 7.0 6
[(0, 1), (0, 0), (2, 1), (2, 0), (1, 1)]
obj:  0.0
solutions:  1
+ 0.14285714285714285x(0,1) + 0.14285714285714285x(2,1) 
C:  18.5
x(0,0) = 17.50	 x(0,1) = 3.50	 x(0,2) = 10.50	 
x(1,0) = 8.50	 x(1,1) = 4.50	 x(1,2) = 11.50	 
x(2,0) = 16.50	 x(2,1) = 3.50	 x(2,2) = 10.50	 
y(0,1,0) = 0.00	 y(1,0,0) = 1.00	 
y(0,2,0) = 0.90	 y(2,0,0) = 0.10	 
y(1,2,0) = 0.59	 y(2,1,0) = 0.41	 
y(0,1,1) = 0.22	 y(1,0,1) = 0.78	 
y(0,2,1) = 0.50	 y(2,0,1) = 0.50	 
y(1,2,1) = 0.36	 y(2,1,1) = 0.64	 
y(0,1,2) = 0.50	 y(1,0,2) = 0.50	 
y(0,2,2) = 0.42	 y(2,0,2) = 0.58	 
y(1,2,2) = 0.49	 y(2,1,2) = 0.51	 
17.5 16.5 2
3.5000000000000018 3.499999999999996 7
4.499999999999999 3.499999999999996 7
11.5 10.499999999999998 6
obj:  0.6380952380952379
solutions:  1
+ 0.06666666666666667x(0,1) + 0.06666666666666668x(2,1) + 0.038095238095238085x(1,1) 
[(0, 1), (0, 0), (2, 1), (2, 0), (1, 1)]
cliques:  1 mip: 32
C:  21.546296296296294
x(0,0) = 20.55	 x(0,1) = 6.55	 x(0,2) = 13.55	 
x(1,0) = 10.05	 x(1,1) = 6.05	 x(1,2) = 13.05	 
x(2,0) = 18.55	 x(2,1) = 5.00	 x(2,2) = 12.00	 
y(0,1,0) = 0.00	 y(1,0,0) = 1.00	 
y(0,2,0) = 0.00	 y(2,0,0) = 1.00	 
y(1,2,0) = 0.53	 y(2,1,0) = 0.47	 
y(0,1,1) = 0.70	 y(1,0,1) = 0.30	 
y(0,2,1) = 0.22	 y(2,0,1) = 0.78	 
y(1,2,1) = 0.24	 y(2,1,1) = 0.76	 
y(0,1,2) = 0.25	 y(1,0,2) = 0.75	 
y(0,2,2) = 0.19	 y(2,0,2) = 0.81	 
y(1,2,2) = 0.69	 y(2,1,2) = 0.31	 
6.5462962962963 6.046296296296293 4
6.5462962962963 4.9986772486772475 7
6.046296296296293 4.9986772486772475 7
13.546296296296296 13.04629629629629 7
13.546296296296296 11.998677248677248 6
13.04629629629629 11.998677248677248 6
obj:  1.0
erro
[(0, 1), (1, 2), (2, 1), (1, 1), (0, 2)]
cliques:  0 mip: 64
C:  22.836784409256843
x(0,0) = 21.84	 x(0,1) = 7.84	 x(0,2) = 14.84	 
x(1,0) = 12.84	 x(1,1) = 3.84	 x(1,2) = 15.84	 
x(2,0) = 19.84	 x(2,1) = 4.97	 x(2,2) = 11.97	 
y(0,1,0) = 0.00	 y(1,0,0) = 1.00	 
y(0,2,0) = 0.00	 y(2,0,0) = 1.00	 
y(1,2,0) = 0.63	 y(2,1,0) = 0.37	 
y(0,1,1) = 0.00	 y(1,0,1) = 1.00	 
y(0,2,1) = 0.61	 y(2,0,1) = 0.39	 
y(1,2,1) = 0.64	 y(2,1,1) = 0.36	 
y(0,1,2) = 0.46	 y(1,0,2) = 0.54	 
y(0,2,2) = 0.52	 y(2,0,2) = 0.48	 
y(1,2,2) = 0.54	 y(2,1,2) = 0.46	 
21.836784409256843 19.836784409256847 2
7.83678440925685 3.836784409258406 4
7.83678440925685 4.970767356881202 7
15.836784409256845 11.970767356881202 6
obj:  0.9999999999999999
erro
[(0, 1), (0, 0), (2, 1), (2, 0), (1, 1)]
cliques:  0 mip: 55
C:  24.191998856015402
x(0,0) = 23.19	 x(0,1) = 8.71	 x(0,2) = 15.71	 
x(1,0) = 14.19	 x(1,1) = 4.93	 x(1,2) = 17.19	 
x(2,0) = 17.40	 x(2,1) = 3.47	 x(2,2) = 11.40	 
y(0,1,0) = 0.00	 y(1,0,0) = 1.00	 
y(0,2,0) = 0.00	 y(2,0,0) = 1.00	 
y(1,2,0) = 0.37	 y(2,1,0) = 0.63	 
y(0,1,1) = 0.08	 y(1,0,1) = 0.92	 
y(0,2,1) = 0.07	 y(2,0,1) = 0.93	 
y(1,2,1) = 0.22	 y(2,1,1) = 0.78	 
y(0,1,2) = 0.78	 y(1,0,2) = 0.22	 
y(0,2,2) = 0.07	 y(2,0,2) = 0.93	 
y(1,2,2) = 0.22	 y(2,1,2) = 0.78	 
8.710985465611367 4.930564954867242 4
8.710985465611367 3.4715488458930666 7
4.930564954867242 3.4715488458930666 7
15.710985465611369 11.4011263106818 6
17.191998856015395 11.4011263106818 6
obj:  1.0
erro
[(0, 1), (1, 2), (2, 1), (1, 1), (0, 2)]
cliques:  0 mip: 86
C:  25.0
x(0,0) = 24.00	 x(0,1) = 4.46	 x(0,2) = 13.67	 
x(1,0) = 15.00	 x(1,1) = 10.19	 x(1,2) = 18.00	 
x(2,0) = 17.72	 x(2,1) = 4.72	 x(2,2) = 11.72	 
y(0,1,0) = 0.00	 y(1,0,0) = 1.00	 
y(0,2,0) = 0.00	 y(2,0,0) = 1.00	 
y(1,2,0) = 0.16	 y(2,1,0) = 0.84	 
y(0,1,1) = 0.92	 y(1,0,1) = 0.08	 
y(0,2,1) = 0.43	 y(2,0,1) = 0.57	 
y(1,2,1) = 0.17	 y(2,1,1) = 0.83	 
y(0,1,2) = 0.89	 y(1,0,2) = 0.11	 
y(0,2,2) = 0.17	 y(2,0,2) = 0.83	 
y(1,2,2) = 0.11	 y(2,1,2) = 0.89	 
10.190871911499258 4.717970193494006 7
obj:  1.0
erro
[(0, 1), (2, 1), (2, 0), (1, 0), (1, 1)]
cliques:  0 mip: 71
C:  24.999999999999996
x(0,0) = 24.00	 x(0,1) = 4.27	 x(0,2) = 12.12	 
x(1,0) = 15.00	 x(1,1) = 10.64	 x(1,2) = 18.00	 
x(2,0) = 22.00	 x(2,1) = 5.22	 x(2,2) = 12.22	 
y(0,1,0) = 0.00	 y(1,0,0) = 1.00	 
y(0,2,0) = 0.00	 y(2,0,0) = 1.00	 
y(1,2,0) = 0.83	 y(2,1,0) = 0.17	 
y(0,1,1) = 0.96	 y(1,0,1) = 0.04	 
y(0,2,1) = 0.60	 y(2,0,1) = 0.40	 
y(1,2,1) = 0.59	 y(2,1,1) = 0.41	 
y(0,1,2) = 0.96	 y(1,0,2) = 0.04	 
y(0,2,2) = 0.65	 y(2,0,2) = 0.35	 
y(1,2,2) = 0.04	 y(2,1,2) = 0.96	 
10.642708610648075 5.223307118344973 7
18.0 12.223307118344973 6
obj:  1.0381882291914724
erro
[(0, 1), (1, 2), (2, 1), (1, 1), (0, 2)]
cliques:  0 mip: 53
C:  24.999999999999996
x(0,0) = 24.00	 x(0,1) = 7.18	 x(0,2) = 17.00	 
x(1,0) = 15.00	 x(1,1) = 6.75	 x(1,2) = 18.00	 
x(2,0) = 18.00	 x(2,1) = 3.96	 x(2,2) = 11.32	 
y(0,1,0) = 0.00	 y(1,0,0) = 1.00	 
y(0,2,0) = 0.00	 y(2,0,0) = 1.00	 
y(1,2,0) = 1.00	 y(2,1,0) = 0.00	 
y(0,1,1) = 0.47	 y(1,0,1) = 0.53	 
y(0,2,1) = 0.34	 y(2,0,1) = 0.66	 
y(1,2,1) = 0.41	 y(2,1,1) = 0.59	 
y(0,1,2) = 0.47	 y(1,0,2) = 0.53	 
y(0,2,2) = 0.29	 y(2,0,2) = 0.71	 
y(1,2,2) = 0.47	 y(2,1,2) = 0.53	 
7.184099467783572 6.75453404295546 4
7.184099467783572 3.9561667933847358 7
6.75453404295546 3.9561667933847358 7
16.999999999999996 11.317740520304044 6
obj:  0.9999999999999998
erro
[(0, 1), (1, 2), (2, 1), (1, 1), (0, 2)]
cliques:  0 mip: 53
C:  24.999999999999996
x(0,0) = 24.00	 x(0,1) = 8.91	 x(0,2) = 17.00	 
x(1,0) = 15.00	 x(1,1) = 4.68	 x(1,2) = 18.00	 
x(2,0) = 18.00	 x(2,1) = 4.41	 x(2,2) = 12.00	 
y(0,1,0) = 0.00	 y(1,0,0) = 1.00	 
y(0,2,0) = 0.00	 y(2,0,0) = 1.00	 
y(1,2,0) = 1.00	 y(2,1,0) = 0.00	 
y(0,1,1) = 0.18	 y(1,0,1) = 0.82	 
y(0,2,1) = 0.18	 y(2,0,1) = 0.82	 
y(1,2,1) = 0.78	 y(2,1,1) = 0.22	 
y(0,1,2) = 0.31	 y(1,0,2) = 0.69	 
y(0,2,2) = 0.52	 y(2,0,2) = 0.48	 
y(1,2,2) = 0.50	 y(2,1,2) = 0.50	 
8.905558278773583 4.414763658877079 7
4.683552792419206 4.414763658877079 7
obj:  1.3846153846153846
erro
[(0, 1), (2, 1), (2, 0), (1, 0), (0, 2)]
cliques:  0 mip: 39
C:  25.0
x(0,0) = 23.88	 x(0,1) = 6.31	 x(0,2) = 13.31	 
x(1,0) = 13.91	 x(1,1) = 5.94	 x(1,2) = 16.91	 
x(2,0) = 23.00	 x(2,1) = 5.67	 x(2,2) = 15.35	 
y(0,1,0) = 0.00	 y(1,0,0) = 1.00	 
y(0,2,0) = 0.06	 y(2,0,0) = 0.94	 
y(1,2,0) = 0.99	 y(2,1,0) = 0.01	 
y(0,1,1) = 0.62	 y(1,0,1) = 0.38	 
y(0,2,1) = 0.48	 y(2,0,1) = 0.52	 
y(1,2,1) = 0.81	 y(2,1,1) = 0.19	 
y(0,1,2) = 0.86	 y(1,0,2) = 0.14	 
y(0,2,2) = 0.80	 y(2,0,2) = 0.20	 
y(1,2,2) = 0.67	 y(2,1,2) = 0.33	 
23.882352941176467 22.999999999999996 2
6.30625677753484 5.940236144067174 4
6.30625677753484 5.666401905110069 7
5.940236144067174 5.666401905110069 7
16.914702692924788 15.353642215970293 6
obj:  1.0244719557598387
erro
[(0, 1), (0, 0), (2, 1), (2, 0), (1, 1)]
cliques:  0 mip: 73
C:  25.0
x(0,0) = 24.00	 x(0,1) = 9.07	 x(0,2) = 16.07	 
x(1,0) = 9.81	 x(1,1) = 2.92	 x(1,2) = 12.81	 
x(2,0) = 21.96	 x(2,1) = 5.09	 x(2,2) = 12.11	 
y(0,1,0) = 0.00	 y(1,0,0) = 1.00	 
y(0,2,0) = 0.00	 y(2,0,0) = 1.00	 
y(1,2,0) = 0.74	 y(2,1,0) = 0.26	 
y(0,1,1) = 0.15	 y(1,0,1) = 0.85	 
y(0,2,1) = 0.22	 y(2,0,1) = 0.78	 
y(1,2,1) = 0.92	 y(2,1,1) = 0.08	 
y(0,1,2) = 0.35	 y(1,0,2) = 0.65	 
y(0,2,2) = 0.08	 y(2,0,2) = 0.92	 
y(1,2,2) = 0.70	 y(2,1,2) = 0.30	 
9.074719207519282 5.086641457940054 7
16.074719207519287 12.809247953751736 7
16.074719207519287 12.11236558121616 6
12.809247953751736 12.11236558121616 6
obj:  1.0068203795464985
erro
[(0, 1), (1, 2), (2, 1), (2, 2), (0, 2)]
cliques:  0 mip: 67
C:  24.999999999999964
x(0,0) = 24.00	 x(0,1) = 8.69	 x(0,2) = 16.71	 
x(1,0) = 12.05	 x(1,1) = 0.61	 x(1,2) = 15.05	 
x(2,0) = 22.00	 x(2,1) = 5.96	 x(2,2) = 12.96	 
y(0,1,0) = 0.00	 y(1,0,0) = 1.00	 
y(0,2,0) = 0.00	 y(2,0,0) = 1.00	 
y(1,2,0) = 0.57	 y(2,1,0) = 0.43	 
y(0,1,1) = 0.00	 y(1,0,1) = 1.00	 
y(0,2,1) = 0.34	 y(2,0,1) = 0.66	 
y(1,2,1) = 0.60	 y(2,1,1) = 0.40	 
y(0,1,2) = 0.63	 y(1,0,2) = 0.37	 
y(0,2,2) = 0.40	 y(2,0,2) = 0.60	 
y(1,2,2) = 0.65	 y(2,1,2) = 0.35	 
8.690738018133054 5.961474698969152 7
16.705359433611626 15.051467857638288 7
16.705359433611626 12.96147469896915 6
15.051467857638288 12.96147469896915 6
obj:  1.0991451986540817
erro
[(0, 1), (1, 2), (2, 1), (2, 2), (0, 2)]
cliques:  0 mip: 68
C:  25.000000000000004
x(0,0) = 24.00	 x(0,1) = 10.00	 x(0,2) = 17.00	 
x(1,0) = 9.21	 x(1,1) = 1.16	 x(1,2) = 12.21	 
x(2,0) = 21.61	 x(2,1) = 4.86	 x(2,2) = 15.61	 
y(0,1,0) = 0.00	 y(1,0,0) = 1.00	 
y(0,2,0) = 0.00	 y(2,0,0) = 1.00	 
y(1,2,0) = 0.70	 y(2,1,0) = 0.30	 
y(0,1,1) = 0.00	 y(1,0,1) = 1.00	 
y(0,2,1) = 0.14	 y(2,0,1) = 0.86	 
y(1,2,1) = 0.82	 y(2,1,1) = 0.18	 
y(0,1,2) = 0.28	 y(1,0,2) = 0.72	 
y(0,2,2) = 0.59	 y(2,0,2) = 0.41	 
y(1,2,2) = 0.72	 y(2,1,2) = 0.28	 
10.000000000000007 4.863397132260855 7
17.000000000000004 12.206513877145817 7
17.000000000000004 15.606000321505686 6
obj:  1.091873989263937
erro
[(0, 1), (1, 2), (2, 1), (2, 2), (0, 2)]
cliques:  0 mip: 71
C:  25.0
x(0,0) = 24.00	 x(0,1) = 9.11	 x(0,2) = 16.30	 
x(1,0) = 7.70	 x(1,1) = 2.59	 x(1,2) = 10.70	 
x(2,0) = 21.51	 x(2,1) = 4.76	 x(2,2) = 15.51	 
y(0,1,0) = 0.00	 y(1,0,0) = 1.00	 
y(0,2,0) = 0.00	 y(2,0,0) = 1.00	 
y(1,2,0) = 0.66	 y(2,1,0) = 0.34	 
y(0,1,1) = 0.15	 y(1,0,1) = 0.85	 
y(0,2,1) = 0.15	 y(2,0,1) = 0.85	 
y(1,2,1) = 0.92	 y(2,1,1) = 0.08	 
y(0,1,2) = 0.09	 y(1,0,2) = 0.91	 
y(0,2,2) = 0.64	 y(2,0,2) = 0.36	 
y(1,2,2) = 0.85	 y(2,1,2) = 0.15	 
9.106336408764292 4.761948909106802 7
16.29958246395847 10.69977237242543 7
16.29958246395847 15.508995625604479 6
obj:  1.0331481963674511
erro
[(0, 1), (1, 2), (2, 1), (2, 2), (0, 2)]
cliques:  0 mip: 67
C:  25.0
x(0,0) = 24.00	 x(0,1) = 9.20	 x(0,2) = 16.20	 
x(1,0) = 9.49	 x(1,1) = 1.28	 x(1,2) = 12.49	 
x(2,0) = 20.90	 x(2,1) = 5.69	 x(2,2) = 14.90	 
y(0,1,0) = 0.00	 y(1,0,0) = 1.00	 
y(0,2,0) = 0.00	 y(2,0,0) = 1.00	 
y(1,2,0) = 0.86	 y(2,1,0) = 0.14	 
y(0,1,1) = 0.13	 y(1,0,1) = 0.87	 
y(0,2,1) = 0.25	 y(2,0,1) = 0.75	 
y(1,2,1) = 0.75	 y(2,1,1) = 0.25	 
y(0,1,2) = 0.31	 y(1,0,2) = 0.69	 
y(0,2,2) = 0.50	 y(2,0,2) = 0.50	 
y(1,2,2) = 0.62	 y(2,1,2) = 0.38	 
9.19828620311294 5.69469915266053 7
16.19828620311294 12.488286483389095 7
16.19828620311294 14.896485870990851 6
obj:  1.0629484396756752
erro
[(0, 1), (1, 2), (2, 1), (2, 2), (0, 2)]
cliques:  0 mip: 83
C:  25.0
x(0,0) = 24.00	 x(0,1) = 8.23	 x(0,2) = 15.27	 
x(1,0) = 10.34	 x(1,1) = 1.63	 x(1,2) = 13.34	 
x(2,0) = 20.69	 x(2,1) = 6.31	 x(2,2) = 14.69	 
y(0,1,0) = 0.00	 y(1,0,0) = 1.00	 
y(0,2,0) = 0.00	 y(2,0,0) = 1.00	 
y(1,2,0) = 0.88	 y(2,1,0) = 0.12	 
y(0,1,1) = 0.30	 y(1,0,1) = 0.70	 
y(0,2,1) = 0.36	 y(2,0,1) = 0.64	 
y(1,2,1) = 0.83	 y(2,1,1) = 0.17	 
y(0,1,2) = 0.54	 y(1,0,2) = 0.46	 
y(0,2,2) = 0.49	 y(2,0,2) = 0.51	 
y(1,2,2) = 0.54	 y(2,1,2) = 0.46	 
8.229082321199163 6.3138835702962615 7
15.27136794968093 13.338629123409552 7
15.27136794968093 14.693265128467631 6
obj:  1.0565185724631472
erro
[(0, 1), (1, 2), (2, 1), (2, 2), (0, 2)]
cliques:  0 mip: 91
C:  25.0
x(0,0) = 24.00	 x(0,1) = 8.85	 x(0,2) = 16.48	 
x(1,0) = 9.61	 x(1,1) = 2.44	 x(1,2) = 12.61	 
x(2,0) = 20.28	 x(2,1) = 5.47	 x(2,2) = 14.28	 
y(0,1,0) = 0.00	 y(1,0,0) = 1.00	 
y(0,2,0) = 0.00	 y(2,0,0) = 1.00	 
y(1,2,0) = 0.92	 y(2,1,0) = 0.08	 
y(0,1,1) = 0.19	 y(1,0,1) = 0.81	 
y(0,2,1) = 0.26	 y(2,0,1) = 0.74	 
y(1,2,1) = 0.96	 y(2,1,1) = 0.04	 
y(0,1,2) = 0.43	 y(1,0,2) = 0.57	 
y(0,2,2) = 0.38	 y(2,0,2) = 0.62	 
y(1,2,2) = 0.58	 y(2,1,2) = 0.42	 
8.850647212494465 5.47445007687875 7
16.484933039484734 12.611427331821833 7
16.484933039484734 14.279110903263794 6
obj:  1.0598871355997388
erro
[(0, 1), (1, 2), (2, 1), (2, 2), (0, 2)]
cliques:  0 mip: 0
iterações: 16 cortes cliques encontrados: 2 mip: 1001 objective:  25.0
Coin0506I Presolve 65 (-61) rows, 39 (-25) columns and 202 (-86) elements
Clp1000I sum of infeasibilities 3.24924e-06 - average 4.99884e-08, 0 fixed columns
Coin0506I Presolve 65 (0) rows, 39 (0) columns and 202 (0) elements
Clp0029I End of values pass after 39 iterations
Clp0000I Optimal - objective value 15
Clp0000I Optimal - objective value 15
Coin0511I After Postsolve, objective 15, infeasibilities - dual 0 (0), primal 0 (0)
Clp0000I Optimal - objective value 15
Clp0000I Optimal - objective value 15
Clp0000I Optimal - objective value 15
Coin0511I After Postsolve, objective 15, infeasibilities - dual 0 (0), primal 0 (0)
Clp0032I Optimal objective 15 - 0 iterations time 0.012, Presolve 0.00, Idiot 0.00
Coin3009W Conflict graph built in 0.000 seconds, density: 0.147%
